# Solution for model r5_t18_m0_1 Batch Number: 2
# Finished Task: 18 / 18
# Makespan: 591.0, Total Distance: 340.0, Total Time: 0.9220
# R O S F Batch
0 0 18 0.0 0.0 -1
1 1 21 0.0 0.0 -1
2 2 22 0.0 0.0 -1
3 3 8 0.0 0.0 -1
4 4 12 0.0 0.0 -1
5 3 11 220.0 254.0 0
6 2 -1 425.0 452.0 0
7 2 17 304.0 333.0 0
8 3 5 165.0 190.0 0
9 4 15 452.0 477.0 1
10 4 14 514.0 552.0 1
11 3 13 311.0 340.0 0
12 4 9 402.0 423.0 0
13 3 16 364.0 384.0 0
14 4 -1 552.0 585.0 1
15 4 10 477.0 498.0 1
16 3 20 474.0 499.0 1
17 2 6 360.0 386.0 0
18 0 -1 418.0 444.0 0
19 1 -1 404.0 442.0 0
20 3 -1 552.0 591.0 1
21 1 19 366.0 392.0 0
22 2 7 228.0 265.0 0
